/* model.lp */

min: (7.9+11.3) x12 + (7.9+43.0) x13 + (7.9+44.1) x14 + (7.9+49.3) x15 + (7.9+50.8) x16 + (7.9+60.1) x17(8.5+11.3) x21 + (8.5+42.2) x23 + (8.5+45.0) x24 + (8.5+51.5) x25 + (8.5+47.5) x26 + (8.5+57.9) x27(6.1+43.0) x31 + (6.1+42.2) x32 + (6.1+6.5) x34 + (6.1+14.6) x35 + (6.1+12.2) x36 + (6.1+17.7) x37(4.0+44.1) x41 + (4.0+45.0) x42 + (4.0+6.5) x43 + (4.0+8.3) x45 + (4.0+17.7) x46 + (4.0+20.1) x47(2.4+49.3) x51 + (2.4+51.5) x52 + (2.4+14.6) x53 + (2.4+8.3) x54 + (2.4+24.2) x56 + (2.4+23.0) x57(5.2+50.8) x61 + (5.2+47.5) x62 + (5.2+12.2) x63 + (5.2+17.7) x64 + (5.2+24.2) x65 + (5.2+11.2) x67(2.4+60.1) x71 + (2.4+57.9) x72 + (2.4+17.7) x73 + (2.4+20.1) x74 + (2.4+23.0) x75 + (2.4+11.2) x76;

x12 + x13 + x14 + x15 + x16 + x17 = 1
x21 + x23 + x24 + x25 + x26 + x27 = 1
x31 + x32 + x34 + x35 + x36 + x37 = 1
x41 + x42 + x43 + x45 + x46 + x47 = 1
x51 + x52 + x53 + x54 + x56 + x57 = 1
x61 + x62 + x63 + x64 + x65 + x67 = 1
x71 + x72 + x73 + x74 + x75 + x76 = 1
x21 + x31 + x41 + x51 + x61 + x71 = 1
x12 + x32 + x42 + x52 + x62 + x72 = 1
x13 + x23 + x43 + x53 + x63 + x73 = 1
x14 + x24 + x34 + x54 + x64 + x74 = 1
x15 + x25 + x35 + x45 + x65 + x75 = 1
x16 + x26 + x36 + x46 + x56 + x76 = 1
x17 + x27 + x37 + x47 + x57 + x67 = 1
b1 >= b2 + (8.5 + 11.3) - 999999999( 1 - x21);
b1 >= b3 + (6.1 + 43.0) - 999999999( 1 - x31);
b1 >= b4 + (4.0 + 44.1) - 999999999( 1 - x41);
b1 >= b5 + (2.4 + 49.3) - 999999999( 1 - x51);
b1 >= b6 + (5.2 + 50.8) - 999999999( 1 - x61);
b1 >= b7 + (2.4 + 60.1) - 999999999( 1 - x71);
b2 >= b1 + (7.9 + 11.3) - 999999999( 1 - x12);
b2 >= b3 + (6.1 + 42.2) - 999999999( 1 - x32);
b2 >= b4 + (4.0 + 45.0) - 999999999( 1 - x42);
b2 >= b5 + (2.4 + 51.5) - 999999999( 1 - x52);
b2 >= b6 + (5.2 + 47.5) - 999999999( 1 - x62);
b2 >= b7 + (2.4 + 57.9) - 999999999( 1 - x72);
b3 >= b1 + (7.9 + 43.0) - 999999999( 1 - x13);
b3 >= b2 + (8.5 + 42.2) - 999999999( 1 - x23);
b3 >= b4 + (4.0 + 6.5) - 999999999( 1 - x43);
b3 >= b5 + (2.4 + 14.6) - 999999999( 1 - x53);
b3 >= b6 + (5.2 + 12.2) - 999999999( 1 - x63);
b3 >= b7 + (2.4 + 17.7) - 999999999( 1 - x73);
b4 >= b1 + (7.9 + 44.1) - 999999999( 1 - x14);
b4 >= b2 + (8.5 + 45.0) - 999999999( 1 - x24);
b4 >= b3 + (6.1 + 6.5) - 999999999( 1 - x34);
b4 >= b5 + (2.4 + 8.3) - 999999999( 1 - x54);
b4 >= b6 + (5.2 + 17.7) - 999999999( 1 - x64);
b4 >= b7 + (2.4 + 20.1) - 999999999( 1 - x74);
b5 >= b1 + (7.9 + 49.3) - 999999999( 1 - x15);
b5 >= b2 + (8.5 + 51.5) - 999999999( 1 - x25);
b5 >= b3 + (6.1 + 14.6) - 999999999( 1 - x35);
b5 >= b4 + (4.0 + 8.3) - 999999999( 1 - x45);
b5 >= b6 + (5.2 + 24.2) - 999999999( 1 - x65);
b5 >= b7 + (2.4 + 23.0) - 999999999( 1 - x75);
b6 >= b1 + (7.9 + 50.8) - 999999999( 1 - x16);
b6 >= b2 + (8.5 + 47.5) - 999999999( 1 - x26);
b6 >= b3 + (6.1 + 12.2) - 999999999( 1 - x36);
b6 >= b4 + (4.0 + 17.7) - 999999999( 1 - x46);
b6 >= b5 + (2.4 + 24.2) - 999999999( 1 - x56);
b6 >= b7 + (2.4 + 11.2) - 999999999( 1 - x76);
b7 >= b1 + (7.9 + 60.1) - 999999999( 1 - x17);
b7 >= b2 + (8.5 + 57.9) - 999999999( 1 - x27);
b7 >= b3 + (6.1 + 17.7) - 999999999( 1 - x37);
b7 >= b4 + (4.0 + 20.1) - 999999999( 1 - x47);
b7 >= b5 + (2.4 + 23.0) - 999999999( 1 - x57);
b7 >= b6 + (5.2 + 11.2) - 999999999( 1 - x67);
0.0 <= b1 <= 0.0;
10.0 <= b2 <= 20.0;
120.0 <= b3 <= 150.0;
120.0 <= b4 <= 150.0;
120.0 <= b5 <= 150.0;
60.0 <= b6 <= 80.0;
90.0 <= b7 <= 130.0;
b1 >= 0;
b2 >= 0;
b3 >= 0;
b4 >= 0;
b5 >= 0;
b6 >= 0;
b7 >= 0;
bin x12, x13, x14, x15, x16, x17, x21, x23, x24, x25, x26, x27, x31, x32, x34, x35, x36, x37, x41, x42, x43, x45, x46, x47, x51, x52, x53, x54, x56, x57, x61, x62, x63, x64, x65, x67, x71, x72, x73, x74, x75, x76, 